sat
(:max-memory         18.14
 :memory             18.00
 :nlsat-decisions    1
 :nlsat-propagations 8
 :nlsat-stages       4
 :num-allocs         6843
 :rlimit-count       4627
 :time               0.00)
